(set-info :source |printed by MathSAT|)
(declare-fun A_32 () Int)
(declare-fun .x.689 () Int)
(declare-fun B_32 () (Array Int Int))
(declare-fun .x.690 () (Array Int Int))
(declare-fun C_32 () (Array Int Int))
(declare-fun .x.691 () (Array Int Int))
(declare-fun D_32 () (Array Int (Array Int Int)))
(declare-fun .x.692 () (Array Int (Array Int Int)))
(declare-fun E_32 () (Array Int (Array Int Int)))
(declare-fun .x.693 () (Array Int (Array Int Int)))
(declare-fun F_32 () Int)
(declare-fun .x.694 () Int)
(declare-fun G_32 () Int)
(declare-fun .x.695 () Int)
(declare-fun H_32 () (Array Int Int))
(declare-fun .x.696 () (Array Int Int))
(declare-fun I_32 () (Array Int Int))
(declare-fun .x.697 () (Array Int Int))
(declare-fun J_32 () Int)
(declare-fun .x.698 () Int)
(declare-fun K_32 () Int)
(declare-fun .x.699 () Int)
(declare-fun L_32 () Int)
(declare-fun .x.700 () Int)
(declare-fun M_32 () Int)
(declare-fun .x.701 () Int)
(declare-fun N_32 () Int)
(declare-fun .x.702 () Int)
(declare-fun O_32 () Int)
(declare-fun .x.703 () Int)
(declare-fun P_32 () Int)
(declare-fun .x.704 () Int)
(declare-fun Q_32 () Int)
(declare-fun .x.705 () Int)
(declare-fun R_32 () Int)
(declare-fun .x.706 () Int)
(declare-fun S_32 () Int)
(declare-fun .x.707 () Int)
(declare-fun T_32 () Int)
(declare-fun .x.708 () Int)
(declare-fun U_32 () Int)
(declare-fun .x.709 () Int)
(declare-fun W_16 () Bool)
(declare-fun V_32 () Bool)
(declare-fun .loc.6 () Bool)
(declare-fun .loc.11 () Bool)
(declare-fun .loc.7 () Bool)
(declare-fun .loc.12 () Bool)
(declare-fun .loc.8 () Bool)
(declare-fun .loc.13 () Bool)
(declare-fun .loc.9 () Bool)
(declare-fun .loc.14 () Bool)
(declare-fun .loc.10 () Bool)
(declare-fun .loc.15 () Bool)
(declare-fun W_0 () (Array Int Int))
(define-fun .def_8 () Int (! A_32 :next |.x.689|))
(define-fun .def_10 () (Array Int Int) (! B_32 :next |.x.690|))
(define-fun .def_12 () (Array Int Int) (! C_32 :next |.x.691|))
(define-fun .def_14 () (Array Int (Array Int Int)) (! D_32 :next |.x.692|))
(define-fun .def_16 () (Array Int (Array Int Int)) (! E_32 :next |.x.693|))
(define-fun .def_18 () Int (! F_32 :next |.x.694|))
(define-fun .def_20 () Int (! G_32 :next |.x.695|))
(define-fun .def_22 () (Array Int Int) (! H_32 :next |.x.696|))
(define-fun .def_24 () (Array Int Int) (! I_32 :next |.x.697|))
(define-fun .def_26 () Int (! J_32 :next |.x.698|))
(define-fun .def_28 () Int (! K_32 :next |.x.699|))
(define-fun .def_30 () Int (! L_32 :next |.x.700|))
(define-fun .def_32 () Int (! M_32 :next |.x.701|))
(define-fun .def_34 () Int (! N_32 :next |.x.702|))
(define-fun .def_36 () Int (! O_32 :next |.x.703|))
(define-fun .def_38 () Int (! P_32 :next |.x.704|))
(define-fun .def_40 () Int (! Q_32 :next |.x.705|))
(define-fun .def_42 () Int (! R_32 :next |.x.706|))
(define-fun .def_44 () Int (! S_32 :next |.x.707|))
(define-fun .def_46 () Int (! T_32 :next |.x.708|))
(define-fun .def_48 () Int (! U_32 :next |.x.709|))
(define-fun .def_50 () Bool (! W_16 :next |V_32|))
(define-fun .def_52 () Bool (! .loc.6 :next |.loc.11|))
(define-fun .def_54 () Bool (! .loc.7 :next |.loc.12|))
(define-fun .def_56 () Bool (! .loc.8 :next |.loc.13|))
(define-fun .def_58 () Bool (! .loc.9 :next |.loc.14|))
(define-fun .def_60 () Bool (! .loc.10 :next |.loc.15|))
(define-fun .def_90 () (Array Int Int) (! W_0 :next |.xtv.1|))
(define-fun .def_70 () Bool (not .def_54))
(define-fun .def_687 () Bool (and .def_52 .def_70))
(define-fun .def_72 () Bool (not .def_56))
(define-fun .def_688 () Bool (and .def_72 .def_687))
(define-fun .def_74 () Bool (not .def_58))
(define-fun .def_689 () Bool (and .def_74 .def_688))
(define-fun .def_85 () Bool (not .def_60))
(define-fun .def_690 () Bool (and .def_85 .def_689))
(define-fun .def_681 () Bool (= .def_14 .def_16))
(define-fun .def_680 () Bool (not .def_50))
(define-fun .def_682 () Bool (and .def_680 .def_681))
(define-fun .def_679 () Bool (= .def_18 .def_20))
(define-fun .def_683 () Bool (and .def_679 .def_682))
(define-fun .def_678 () Bool (= .def_26 .def_28))
(define-fun .def_684 () Bool (and .def_678 .def_683))
(define-fun .def_677 () Bool (= .def_22 .def_24))
(define-fun .def_685 () Bool (and .def_677 .def_684))
(define-fun .def_676 () Bool (= .def_10 .def_12))
(define-fun .def_686 () Bool (and .def_676 .def_685))
(define-fun .def_691 () Bool (! (and .def_686 .def_690) :init true))
(define-fun .def_673 () Bool (= .def_28 .x.699))
(define-fun .def_671 () Bool (= .def_24 .x.697))
(define-fun .def_669 () Bool (= .def_20 .x.695))
(define-fun .def_667 () Bool (= .def_16 .x.693))
(define-fun .def_665 () Bool (= .def_8 .x.689))
(define-fun .def_664 () Bool (= .def_12 .x.691))
(define-fun .def_666 () Bool (and .def_664 .def_665))
(define-fun .def_668 () Bool (and .def_666 .def_667))
(define-fun .def_670 () Bool (and .def_668 .def_669))
(define-fun .def_672 () Bool (and .def_670 .def_671))
(define-fun .def_674 () Bool (and .def_672 .def_673))
(define-fun .def_126 () Bool (= .def_10 .x.690))
(define-fun .def_620 () Bool (and V_32 .def_126))
(define-fun .def_62 () Bool (= .def_30 .x.700))
(define-fun .def_621 () Bool (and .def_62 .def_620))
(define-fun .def_128 () Bool (= .def_32 .x.701))
(define-fun .def_622 () Bool (and .def_128 .def_621))
(define-fun .def_130 () Bool (= .def_34 .x.702))
(define-fun .def_623 () Bool (and .def_130 .def_622))
(define-fun .def_133 () Bool (= .def_38 .x.704))
(define-fun .def_624 () Bool (and .def_133 .def_623))
(define-fun .def_143 () Bool (not .def_52))
(define-fun .def_625 () Bool (and .def_143 .def_624))
(define-fun .def_616 () Bool (= .x.704 0))
(define-fun .def_614 () (Array Int Int) (store .def_10 .def_34 0))
(define-fun .def_615 () Bool (= .x.690 .def_614))
(define-fun .def_617 () Bool (and .def_615 .def_616))
(define-fun .def_618 () Bool (or .def_50 .def_617))
(define-fun .def_610 () Bool (= .x.700 .x.704))
(define-fun .def_611 () Bool (or V_32 .def_610))
(define-fun .def_612 () Bool (and .def_52 .def_611))
(define-fun .def_83 () Bool (= .def_50 V_32))
(define-fun .def_613 () Bool (and .def_83 .def_612))
(define-fun .def_619 () Bool (and .def_613 .def_618))
(define-fun .def_626 () Bool (or .def_619 .def_625))
(define-fun .def_606 () Bool (and .def_60 .def_70))
(define-fun .def_607 () Bool (and .def_72 .def_606))
(define-fun .def_608 () Bool (and .def_74 .def_607))
(define-fun .def_609 () Bool (and .loc.12 .def_608))
(define-fun .def_627 () Bool (and .def_609 .def_626))
(define-fun .def_460 () Bool (= .def_36 0))
(define-fun .def_604 () Bool (or .def_50 .def_460))
(define-fun .def_127 () Bool (and .def_62 .def_126))
(define-fun .def_129 () Bool (and .def_127 .def_128))
(define-fun .def_131 () Bool (and .def_129 .def_130))
(define-fun .def_565 () Bool (and .def_131 .def_133))
(define-fun .def_597 () Bool (and .def_52 .def_565))
(define-fun .def_598 () Bool (and .def_54 .def_597))
(define-fun .def_599 () Bool (and .def_56 .def_598))
(define-fun .def_600 () Bool (and .def_58 .def_599))
(define-fun .def_601 () Bool (and .def_83 .def_600))
(define-fun .def_232 () Bool (not .loc.12))
(define-fun .def_602 () Bool (and .def_232 .def_601))
(define-fun .def_603 () Bool (and .def_85 .def_602))
(define-fun .def_605 () Bool (and .def_603 .def_604))
(define-fun .def_628 () Bool (or .def_605 .def_627))
(define-fun .def_135 () Bool (= .def_40 .x.705))
(define-fun .def_65 () Bool (= .def_36 .x.703))
(define-fun .def_591 () Bool (and .def_65 .def_135))
(define-fun .def_67 () Bool (= .def_46 .x.708))
(define-fun .def_592 () Bool (and .def_67 .def_591))
(define-fun .def_593 () Bool (and .loc.15 .def_592))
(define-fun .def_77 () Bool (not .loc.11))
(define-fun .def_594 () Bool (and .def_77 .def_593))
(define-fun .def_79 () Bool (not .loc.13))
(define-fun .def_595 () Bool (and .def_79 .def_594))
(define-fun .def_81 () Bool (not .loc.14))
(define-fun .def_596 () Bool (and .def_81 .def_595))
(define-fun .def_629 () Bool (and .def_596 .def_628))
(define-fun .def_587 () Bool (= .x.703 .x.708))
(define-fun .def_582 () Int (* 4 .def_48))
(define-fun .def_583 () Int (+ .def_32 .def_582))
(define-fun .def_158 () (Array Int Int) (select .def_14 .def_34))
(define-fun .def_584 () Int (select .def_158 .def_583))
(define-fun .def_585 () Bool (= .x.705 .def_584))
(define-fun .def_519 () Bool (<= 100000 .def_48))
(define-fun .def_580 () Bool (not .def_519))
(define-fun .def_577 () Bool (= .x.705 47))
(define-fun .def_578 () Int (ite .def_577 1 0))
(define-fun .def_579 () Bool (= .x.708 .def_578))
(define-fun .def_581 () Bool (and .def_579 .def_580))
(define-fun .def_586 () Bool (and .def_581 .def_585))
(define-fun .def_588 () Bool (and .def_586 .def_587))
(define-fun .def_589 () Bool (or .def_50 .def_588))
(define-fun .def_566 () Bool (and .def_54 .def_565))
(define-fun .def_567 () Bool (and .def_56 .def_566))
(define-fun .def_568 () Bool (and .def_58 .def_567))
(define-fun .def_569 () Bool (and .def_143 .def_568))
(define-fun .def_570 () Bool (and .loc.11 .def_569))
(define-fun .def_571 () Bool (and .loc.12 .def_570))
(define-fun .def_572 () Bool (and .loc.13 .def_571))
(define-fun .def_573 () Bool (and .loc.14 .def_572))
(define-fun .def_574 () Bool (and .def_83 .def_573))
(define-fun .def_575 () Bool (and .def_85 .def_574))
(define-fun .def_87 () Bool (not .loc.15))
(define-fun .def_576 () Bool (and .def_87 .def_575))
(define-fun .def_590 () Bool (and .def_576 .def_589))
(define-fun .def_630 () Bool (or .def_590 .def_629))
(define-fun .def_140 () Bool (= .def_48 .x.709))
(define-fun .def_137 () Bool (= .def_44 .x.707))
(define-fun .def_564 () Bool (and .def_137 .def_140))
(define-fun .def_631 () Bool (and .def_564 .def_630))
(define-fun .def_559 () Int (* (- 1) .x.709))
(define-fun .def_560 () Int (+ .def_48 .def_559))
(define-fun .def_561 () Bool (= .def_560 (- 1)))
(define-fun .def_562 () Bool (or V_32 .def_561))
(define-fun .def_132 () Bool (and .def_65 .def_131))
(define-fun .def_134 () Bool (and .def_132 .def_133))
(define-fun .def_547 () Bool (and .def_67 .def_134))
(define-fun .def_548 () Bool (and .def_143 .def_547))
(define-fun .def_549 () Bool (and .def_70 .def_548))
(define-fun .def_550 () Bool (and .def_72 .def_549))
(define-fun .def_551 () Bool (and .def_74 .def_550))
(define-fun .def_552 () Bool (and .loc.12 .def_551))
(define-fun .def_553 () Bool (and .loc.13 .def_552))
(define-fun .def_554 () Bool (and .loc.14 .def_553))
(define-fun .def_555 () Bool (and .def_77 .def_554))
(define-fun .def_556 () Bool (and .def_83 .def_555))
(define-fun .def_557 () Bool (and .def_85 .def_556))
(define-fun .def_558 () Bool (and .def_87 .def_557))
(define-fun .def_563 () Bool (and .def_558 .def_562))
(define-fun .def_632 () Bool (or .def_563 .def_631))
(define-fun .def_544 () Bool (= .x.709 0))
(define-fun .def_545 () Bool (or .def_50 .def_544))
(define-fun .def_136 () Bool (and .def_134 .def_135))
(define-fun .def_138 () Bool (and .def_136 .def_137))
(define-fun .def_139 () Bool (and .def_67 .def_138))
(define-fun .def_533 () Bool (and .def_52 .def_139))
(define-fun .def_534 () Bool (and .def_56 .def_533))
(define-fun .def_535 () Bool (and .def_58 .def_534))
(define-fun .def_536 () Bool (and .def_70 .def_535))
(define-fun .def_537 () Bool (and .loc.12 .def_536))
(define-fun .def_538 () Bool (and .loc.13 .def_537))
(define-fun .def_539 () Bool (and .loc.14 .def_538))
(define-fun .def_540 () Bool (and .def_77 .def_539))
(define-fun .def_541 () Bool (and .def_83 .def_540))
(define-fun .def_542 () Bool (and .def_85 .def_541))
(define-fun .def_543 () Bool (and .def_87 .def_542))
(define-fun .def_546 () Bool (and .def_543 .def_545))
(define-fun .def_633 () Bool (or .def_546 .def_632))
(define-fun .def_198 () Bool (and .def_50 .def_126))
(define-fun .def_490 () Bool (and .def_62 .def_198))
(define-fun .def_491 () Bool (and .def_128 .def_490))
(define-fun .def_492 () Bool (and .def_130 .def_491))
(define-fun .def_493 () Bool (and .def_65 .def_492))
(define-fun .def_494 () Bool (and .def_133 .def_493))
(define-fun .def_495 () Bool (and .def_135 .def_494))
(define-fun .def_496 () Bool (and .def_137 .def_495))
(define-fun .def_497 () Bool (and .def_67 .def_496))
(define-fun .def_498 () Bool (and .def_140 .def_497))
(define-fun .def_522 () Bool (and .def_54 .def_498))
(define-fun .def_523 () Bool (and .def_56 .def_522))
(define-fun .def_524 () Bool (and .def_58 .def_523))
(define-fun .def_525 () Bool (and .def_143 .def_524))
(define-fun .def_526 () Bool (and .loc.11 .def_525))
(define-fun .def_527 () Bool (and .loc.15 .def_526))
(define-fun .def_528 () Bool (and .def_79 .def_527))
(define-fun .def_529 () Bool (and .def_81 .def_528))
(define-fun .def_530 () Bool (and .def_83 .def_529))
(define-fun .def_531 () Bool (and .def_232 .def_530))
(define-fun .def_532 () Bool (and .def_85 .def_531))
(define-fun .def_634 () Bool (or .def_532 .def_633))
(define-fun .def_520 () Bool (or .def_50 .def_519))
(define-fun .def_141 () Bool (and .def_139 .def_140))
(define-fun .def_142 () Bool (and .def_54 .def_141))
(define-fun .def_290 () Bool (and .def_56 .def_142))
(define-fun .def_510 () Bool (and .def_58 .def_290))
(define-fun .def_511 () Bool (and .def_143 .def_510))
(define-fun .def_512 () Bool (and .loc.11 .def_511))
(define-fun .def_513 () Bool (and .loc.15 .def_512))
(define-fun .def_514 () Bool (and .def_79 .def_513))
(define-fun .def_515 () Bool (and .def_81 .def_514))
(define-fun .def_516 () Bool (and .def_83 .def_515))
(define-fun .def_517 () Bool (and .def_232 .def_516))
(define-fun .def_518 () Bool (and .def_85 .def_517))
(define-fun .def_521 () Bool (and .def_518 .def_520))
(define-fun .def_635 () Bool (or .def_521 .def_634))
(define-fun .def_499 () Bool (and .def_56 .def_498))
(define-fun .def_500 () Bool (and .def_58 .def_499))
(define-fun .def_501 () Bool (and .def_143 .def_500))
(define-fun .def_502 () Bool (and .def_70 .def_501))
(define-fun .def_503 () Bool (and .loc.11 .def_502))
(define-fun .def_504 () Bool (and .loc.13 .def_503))
(define-fun .def_505 () Bool (and .loc.14 .def_504))
(define-fun .def_506 () Bool (and .def_83 .def_505))
(define-fun .def_507 () Bool (and .def_232 .def_506))
(define-fun .def_508 () Bool (and .def_85 .def_507))
(define-fun .def_509 () Bool (and .def_87 .def_508))
(define-fun .def_636 () Bool (or .def_509 .def_635))
(define-fun .def_238 () Bool (and .def_56 .def_141))
(define-fun .def_464 () Bool (and .def_58 .def_238))
(define-fun .def_465 () Bool (and .def_143 .def_464))
(define-fun .def_466 () Bool (and .def_70 .def_465))
(define-fun .def_482 () Bool (and .loc.11 .def_466))
(define-fun .def_483 () Bool (and .loc.13 .def_482))
(define-fun .def_484 () Bool (and .loc.14 .def_483))
(define-fun .def_485 () Bool (and .def_83 .def_484))
(define-fun .def_486 () Bool (and .def_232 .def_485))
(define-fun .def_487 () Bool (and .def_85 .def_486))
(define-fun .def_488 () Bool (and .def_87 .def_487))
(define-fun .def_167 () Bool (<= 100000 .def_42))
(define-fun .def_196 () Bool (or .def_50 .def_167))
(define-fun .def_489 () Bool (and .def_196 .def_488))
(define-fun .def_637 () Bool (or .def_489 .def_636))
(define-fun .def_180 () Bool (= .def_42 .x.706))
(define-fun .def_63 () Bool (= .def_14 .x.692))
(define-fun .def_481 () Bool (and .def_63 .def_180))
(define-fun .def_638 () Bool (and .def_481 .def_637))
(define-fun .def_156 () Int (* 4 .def_42))
(define-fun .def_157 () Int (+ .def_32 .def_156))
(define-fun .def_475 () (Array Int Int) (store .def_158 .def_157 47))
(define-fun .def_476 () (Array Int (Array Int Int)) (store .def_14 .def_34 .def_475))
(define-fun .def_477 () Bool (= .x.692 .def_476))
(define-fun .def_168 () Bool (not .def_167))
(define-fun .def_163 () Int (* (- 1) .x.706))
(define-fun .def_164 () Int (+ .def_42 .def_163))
(define-fun .def_165 () Bool (= .def_164 (- 1)))
(define-fun .def_169 () Bool (and .def_165 .def_168))
(define-fun .def_478 () Bool (and .def_169 .def_477))
(define-fun .def_479 () Bool (or .def_50 .def_478))
(define-fun .def_467 () Bool (and .loc.13 .def_466))
(define-fun .def_468 () Bool (and .loc.14 .def_467))
(define-fun .def_469 () Bool (and .def_77 .def_468))
(define-fun .def_470 () Bool (and .def_83 .def_469))
(define-fun .def_471 () Bool (and .def_232 .def_470))
(define-fun .def_472 () Bool (and .def_85 .def_471))
(define-fun .def_473 () Bool (and .def_87 .def_472))
(define-fun .def_480 () Bool (and .def_473 .def_479))
(define-fun .def_639 () Bool (or .def_480 .def_638))
(define-fun .def_461 () Bool (not .def_460))
(define-fun .def_462 () Bool (or .def_50 .def_461))
(define-fun .def_173 () Bool (and .def_63 .def_126))
(define-fun .def_174 () Bool (and .def_62 .def_173))
(define-fun .def_175 () Bool (and .def_128 .def_174))
(define-fun .def_176 () Bool (and .def_130 .def_175))
(define-fun .def_177 () Bool (and .def_65 .def_176))
(define-fun .def_178 () Bool (and .def_133 .def_177))
(define-fun .def_179 () Bool (and .def_135 .def_178))
(define-fun .def_181 () Bool (and .def_179 .def_180))
(define-fun .def_182 () Bool (and .def_137 .def_181))
(define-fun .def_183 () Bool (and .def_67 .def_182))
(define-fun .def_184 () Bool (and .def_140 .def_183))
(define-fun .def_449 () Bool (and .def_52 .def_184))
(define-fun .def_450 () Bool (and .def_54 .def_449))
(define-fun .def_451 () Bool (and .def_56 .def_450))
(define-fun .def_452 () Bool (and .def_58 .def_451))
(define-fun .def_453 () Bool (and .def_77 .def_452))
(define-fun .def_454 () Bool (and .def_79 .def_453))
(define-fun .def_455 () Bool (and .def_81 .def_454))
(define-fun .def_456 () Bool (and .def_83 .def_455))
(define-fun .def_457 () Bool (and .def_232 .def_456))
(define-fun .def_458 () Bool (and .def_85 .def_457))
(define-fun .def_459 () Bool (and .def_87 .def_458))
(define-fun .def_463 () Bool (and .def_459 .def_462))
(define-fun .def_640 () Bool (or .def_463 .def_639))
(define-fun .def_199 () Bool (and .def_63 .def_198))
(define-fun .def_200 () Bool (and .def_62 .def_199))
(define-fun .def_201 () Bool (and .def_128 .def_200))
(define-fun .def_202 () Bool (and .def_130 .def_201))
(define-fun .def_203 () Bool (and .def_65 .def_202))
(define-fun .def_204 () Bool (and .def_133 .def_203))
(define-fun .def_205 () Bool (and .def_135 .def_204))
(define-fun .def_206 () Bool (and .def_180 .def_205))
(define-fun .def_207 () Bool (and .def_137 .def_206))
(define-fun .def_208 () Bool (and .def_67 .def_207))
(define-fun .def_209 () Bool (and .def_140 .def_208))
(define-fun .def_438 () Bool (and .def_60 .def_209))
(define-fun .def_439 () Bool (and .def_143 .def_438))
(define-fun .def_440 () Bool (and .def_70 .def_439))
(define-fun .def_441 () Bool (and .def_72 .def_440))
(define-fun .def_442 () Bool (and .def_74 .def_441))
(define-fun .def_443 () Bool (and .def_77 .def_442))
(define-fun .def_444 () Bool (and .def_79 .def_443))
(define-fun .def_445 () Bool (and .def_81 .def_444))
(define-fun .def_446 () Bool (and .def_83 .def_445))
(define-fun .def_447 () Bool (and .def_232 .def_446))
(define-fun .def_448 () Bool (and .def_87 .def_447))
(define-fun .def_641 () Bool (or .def_448 .def_640))
(define-fun .def_221 () Bool (and .def_137 .def_179))
(define-fun .def_222 () Bool (and .def_67 .def_221))
(define-fun .def_223 () Bool (and .def_140 .def_222))
(define-fun .def_224 () Bool (and .def_52 .def_223))
(define-fun .def_225 () Bool (and .def_54 .def_224))
(define-fun .def_428 () Bool (and .def_58 .def_225))
(define-fun .def_429 () Bool (and .def_72 .def_428))
(define-fun .def_430 () Bool (and .loc.13 .def_429))
(define-fun .def_431 () Bool (and .loc.14 .def_430))
(define-fun .def_432 () Bool (and .def_77 .def_431))
(define-fun .def_433 () Bool (and .def_83 .def_432))
(define-fun .def_434 () Bool (and .def_232 .def_433))
(define-fun .def_435 () Bool (and .def_85 .def_434))
(define-fun .def_436 () Bool (and .def_87 .def_435))
(define-fun .def_104 () Bool (= .x.706 0))
(define-fun .def_236 () Bool (or .def_50 .def_104))
(define-fun .def_437 () Bool (and .def_236 .def_436))
(define-fun .def_642 () Bool (or .def_437 .def_641))
(define-fun .def_210 () Bool (and .def_54 .def_209))
(define-fun .def_418 () Bool (and .def_58 .def_210))
(define-fun .def_419 () Bool (and .def_143 .def_418))
(define-fun .def_420 () Bool (and .def_72 .def_419))
(define-fun .def_421 () Bool (and .loc.11 .def_420))
(define-fun .def_422 () Bool (and .loc.12 .def_421))
(define-fun .def_423 () Bool (and .loc.14 .def_422))
(define-fun .def_424 () Bool (and .def_79 .def_423))
(define-fun .def_425 () Bool (and .def_83 .def_424))
(define-fun .def_426 () Bool (and .def_85 .def_425))
(define-fun .def_427 () Bool (and .def_87 .def_426))
(define-fun .def_643 () Bool (or .def_427 .def_642))
(define-fun .def_185 () Bool (and .def_54 .def_184))
(define-fun .def_407 () Bool (and .def_58 .def_185))
(define-fun .def_408 () Bool (and .def_143 .def_407))
(define-fun .def_409 () Bool (and .def_72 .def_408))
(define-fun .def_410 () Bool (and .loc.11 .def_409))
(define-fun .def_411 () Bool (and .loc.12 .def_410))
(define-fun .def_412 () Bool (and .loc.14 .def_411))
(define-fun .def_413 () Bool (and .def_79 .def_412))
(define-fun .def_414 () Bool (and .def_83 .def_413))
(define-fun .def_415 () Bool (and .def_85 .def_414))
(define-fun .def_416 () Bool (and .def_87 .def_415))
(define-fun .def_417 () Bool (and .def_196 .def_416))
(define-fun .def_644 () Bool (or .def_417 .def_643))
(define-fun .def_401 () (Array Int Int) (store .def_158 .def_157 46))
(define-fun .def_402 () (Array Int (Array Int Int)) (store .def_14 .def_34 .def_401))
(define-fun .def_403 () Bool (= .x.692 .def_402))
(define-fun .def_404 () Bool (and .def_169 .def_403))
(define-fun .def_405 () Bool (or .def_50 .def_404))
(define-fun .def_390 () Bool (and .def_58 .def_142))
(define-fun .def_391 () Bool (and .def_143 .def_390))
(define-fun .def_392 () Bool (and .def_72 .def_391))
(define-fun .def_393 () Bool (and .loc.12 .def_392))
(define-fun .def_394 () Bool (and .loc.14 .def_393))
(define-fun .def_395 () Bool (and .def_77 .def_394))
(define-fun .def_396 () Bool (and .def_79 .def_395))
(define-fun .def_397 () Bool (and .def_83 .def_396))
(define-fun .def_398 () Bool (and .def_85 .def_397))
(define-fun .def_399 () Bool (and .def_87 .def_398))
(define-fun .def_406 () Bool (and .def_399 .def_405))
(define-fun .def_645 () Bool (or .def_406 .def_644))
(define-fun .def_379 () Bool (and .def_58 .def_224))
(define-fun .def_380 () Bool (and .def_70 .def_379))
(define-fun .def_381 () Bool (and .def_72 .def_380))
(define-fun .def_382 () Bool (and .loc.12 .def_381))
(define-fun .def_383 () Bool (and .loc.14 .def_382))
(define-fun .def_384 () Bool (and .def_77 .def_383))
(define-fun .def_385 () Bool (and .def_79 .def_384))
(define-fun .def_386 () Bool (and .def_83 .def_385))
(define-fun .def_387 () Bool (and .def_85 .def_386))
(define-fun .def_388 () Bool (and .def_87 .def_387))
(define-fun .def_389 () Bool (and .def_236 .def_388))
(define-fun .def_646 () Bool (or .def_389 .def_645))
(define-fun .def_368 () Bool (and .def_58 .def_209))
(define-fun .def_369 () Bool (and .def_143 .def_368))
(define-fun .def_370 () Bool (and .def_70 .def_369))
(define-fun .def_371 () Bool (and .def_72 .def_370))
(define-fun .def_372 () Bool (and .loc.11 .def_371))
(define-fun .def_373 () Bool (and .loc.14 .def_372))
(define-fun .def_374 () Bool (and .def_79 .def_373))
(define-fun .def_375 () Bool (and .def_83 .def_374))
(define-fun .def_376 () Bool (and .def_232 .def_375))
(define-fun .def_377 () Bool (and .def_85 .def_376))
(define-fun .def_378 () Bool (and .def_87 .def_377))
(define-fun .def_647 () Bool (or .def_378 .def_646))
(define-fun .def_356 () Bool (and .def_58 .def_184))
(define-fun .def_357 () Bool (and .def_143 .def_356))
(define-fun .def_358 () Bool (and .def_70 .def_357))
(define-fun .def_359 () Bool (and .def_72 .def_358))
(define-fun .def_360 () Bool (and .loc.11 .def_359))
(define-fun .def_361 () Bool (and .loc.14 .def_360))
(define-fun .def_362 () Bool (and .def_79 .def_361))
(define-fun .def_363 () Bool (and .def_83 .def_362))
(define-fun .def_364 () Bool (and .def_232 .def_363))
(define-fun .def_365 () Bool (and .def_85 .def_364))
(define-fun .def_366 () Bool (and .def_87 .def_365))
(define-fun .def_367 () Bool (and .def_196 .def_366))
(define-fun .def_648 () Bool (or .def_367 .def_647))
(define-fun .def_350 () (Array Int Int) (store .def_158 .def_157 45))
(define-fun .def_351 () (Array Int (Array Int Int)) (store .def_14 .def_34 .def_350))
(define-fun .def_352 () Bool (= .x.692 .def_351))
(define-fun .def_353 () Bool (and .def_169 .def_352))
(define-fun .def_354 () Bool (or .def_50 .def_353))
(define-fun .def_338 () Bool (and .def_58 .def_141))
(define-fun .def_339 () Bool (and .def_143 .def_338))
(define-fun .def_340 () Bool (and .def_70 .def_339))
(define-fun .def_341 () Bool (and .def_72 .def_340))
(define-fun .def_342 () Bool (and .loc.14 .def_341))
(define-fun .def_343 () Bool (and .def_77 .def_342))
(define-fun .def_344 () Bool (and .def_79 .def_343))
(define-fun .def_345 () Bool (and .def_83 .def_344))
(define-fun .def_346 () Bool (and .def_232 .def_345))
(define-fun .def_347 () Bool (and .def_85 .def_346))
(define-fun .def_348 () Bool (and .def_87 .def_347))
(define-fun .def_355 () Bool (and .def_348 .def_354))
(define-fun .def_649 () Bool (or .def_355 .def_648))
(define-fun .def_328 () Bool (and .def_56 .def_225))
(define-fun .def_329 () Bool (and .def_74 .def_328))
(define-fun .def_330 () Bool (and .loc.14 .def_329))
(define-fun .def_331 () Bool (and .def_77 .def_330))
(define-fun .def_332 () Bool (and .def_79 .def_331))
(define-fun .def_333 () Bool (and .def_83 .def_332))
(define-fun .def_334 () Bool (and .def_232 .def_333))
(define-fun .def_335 () Bool (and .def_85 .def_334))
(define-fun .def_336 () Bool (and .def_87 .def_335))
(define-fun .def_337 () Bool (and .def_236 .def_336))
(define-fun .def_650 () Bool (or .def_337 .def_649))
(define-fun .def_318 () Bool (and .def_56 .def_210))
(define-fun .def_319 () Bool (and .def_143 .def_318))
(define-fun .def_320 () Bool (and .def_74 .def_319))
(define-fun .def_321 () Bool (and .loc.11 .def_320))
(define-fun .def_322 () Bool (and .loc.12 .def_321))
(define-fun .def_323 () Bool (and .loc.13 .def_322))
(define-fun .def_324 () Bool (and .def_81 .def_323))
(define-fun .def_325 () Bool (and .def_83 .def_324))
(define-fun .def_326 () Bool (and .def_85 .def_325))
(define-fun .def_327 () Bool (and .def_87 .def_326))
(define-fun .def_651 () Bool (or .def_327 .def_650))
(define-fun .def_307 () Bool (and .def_56 .def_185))
(define-fun .def_308 () Bool (and .def_143 .def_307))
(define-fun .def_309 () Bool (and .def_74 .def_308))
(define-fun .def_310 () Bool (and .loc.11 .def_309))
(define-fun .def_311 () Bool (and .loc.12 .def_310))
(define-fun .def_312 () Bool (and .loc.13 .def_311))
(define-fun .def_313 () Bool (and .def_81 .def_312))
(define-fun .def_314 () Bool (and .def_83 .def_313))
(define-fun .def_315 () Bool (and .def_85 .def_314))
(define-fun .def_316 () Bool (and .def_87 .def_315))
(define-fun .def_317 () Bool (and .def_196 .def_316))
(define-fun .def_652 () Bool (or .def_317 .def_651))
(define-fun .def_301 () (Array Int Int) (store .def_158 .def_157 44))
(define-fun .def_302 () (Array Int (Array Int Int)) (store .def_14 .def_34 .def_301))
(define-fun .def_303 () Bool (= .x.692 .def_302))
(define-fun .def_304 () Bool (and .def_169 .def_303))
(define-fun .def_305 () Bool (or .def_50 .def_304))
(define-fun .def_291 () Bool (and .def_143 .def_290))
(define-fun .def_292 () Bool (and .def_74 .def_291))
(define-fun .def_293 () Bool (and .loc.12 .def_292))
(define-fun .def_294 () Bool (and .loc.13 .def_293))
(define-fun .def_295 () Bool (and .def_77 .def_294))
(define-fun .def_296 () Bool (and .def_81 .def_295))
(define-fun .def_297 () Bool (and .def_83 .def_296))
(define-fun .def_298 () Bool (and .def_85 .def_297))
(define-fun .def_299 () Bool (and .def_87 .def_298))
(define-fun .def_306 () Bool (and .def_299 .def_305))
(define-fun .def_653 () Bool (or .def_306 .def_652))
(define-fun .def_279 () Bool (and .def_56 .def_224))
(define-fun .def_280 () Bool (and .def_70 .def_279))
(define-fun .def_281 () Bool (and .def_74 .def_280))
(define-fun .def_282 () Bool (and .loc.12 .def_281))
(define-fun .def_283 () Bool (and .loc.13 .def_282))
(define-fun .def_284 () Bool (and .def_77 .def_283))
(define-fun .def_285 () Bool (and .def_81 .def_284))
(define-fun .def_286 () Bool (and .def_83 .def_285))
(define-fun .def_287 () Bool (and .def_85 .def_286))
(define-fun .def_288 () Bool (and .def_87 .def_287))
(define-fun .def_289 () Bool (and .def_236 .def_288))
(define-fun .def_654 () Bool (or .def_289 .def_653))
(define-fun .def_268 () Bool (and .def_56 .def_209))
(define-fun .def_269 () Bool (and .def_143 .def_268))
(define-fun .def_270 () Bool (and .def_70 .def_269))
(define-fun .def_271 () Bool (and .def_74 .def_270))
(define-fun .def_272 () Bool (and .loc.11 .def_271))
(define-fun .def_273 () Bool (and .loc.13 .def_272))
(define-fun .def_274 () Bool (and .def_81 .def_273))
(define-fun .def_275 () Bool (and .def_83 .def_274))
(define-fun .def_276 () Bool (and .def_232 .def_275))
(define-fun .def_277 () Bool (and .def_85 .def_276))
(define-fun .def_278 () Bool (and .def_87 .def_277))
(define-fun .def_655 () Bool (or .def_278 .def_654))
(define-fun .def_256 () Bool (and .def_56 .def_184))
(define-fun .def_257 () Bool (and .def_143 .def_256))
(define-fun .def_258 () Bool (and .def_70 .def_257))
(define-fun .def_259 () Bool (and .def_74 .def_258))
(define-fun .def_260 () Bool (and .loc.11 .def_259))
(define-fun .def_261 () Bool (and .loc.13 .def_260))
(define-fun .def_262 () Bool (and .def_81 .def_261))
(define-fun .def_263 () Bool (and .def_83 .def_262))
(define-fun .def_264 () Bool (and .def_232 .def_263))
(define-fun .def_265 () Bool (and .def_85 .def_264))
(define-fun .def_266 () Bool (and .def_87 .def_265))
(define-fun .def_267 () Bool (and .def_196 .def_266))
(define-fun .def_656 () Bool (or .def_267 .def_655))
(define-fun .def_250 () (Array Int Int) (store .def_158 .def_157 43))
(define-fun .def_251 () (Array Int (Array Int Int)) (store .def_14 .def_34 .def_250))
(define-fun .def_252 () Bool (= .x.692 .def_251))
(define-fun .def_253 () Bool (and .def_169 .def_252))
(define-fun .def_254 () Bool (or .def_50 .def_253))
(define-fun .def_239 () Bool (and .def_143 .def_238))
(define-fun .def_240 () Bool (and .def_70 .def_239))
(define-fun .def_241 () Bool (and .def_74 .def_240))
(define-fun .def_242 () Bool (and .loc.13 .def_241))
(define-fun .def_243 () Bool (and .def_77 .def_242))
(define-fun .def_244 () Bool (and .def_81 .def_243))
(define-fun .def_245 () Bool (and .def_83 .def_244))
(define-fun .def_246 () Bool (and .def_232 .def_245))
(define-fun .def_247 () Bool (and .def_85 .def_246))
(define-fun .def_248 () Bool (and .def_87 .def_247))
(define-fun .def_255 () Bool (and .def_248 .def_254))
(define-fun .def_657 () Bool (or .def_255 .def_656))
(define-fun .def_226 () Bool (and .def_72 .def_225))
(define-fun .def_227 () Bool (and .def_74 .def_226))
(define-fun .def_228 () Bool (and .loc.13 .def_227))
(define-fun .def_229 () Bool (and .def_77 .def_228))
(define-fun .def_230 () Bool (and .def_81 .def_229))
(define-fun .def_231 () Bool (and .def_83 .def_230))
(define-fun .def_233 () Bool (and .def_231 .def_232))
(define-fun .def_234 () Bool (and .def_85 .def_233))
(define-fun .def_235 () Bool (and .def_87 .def_234))
(define-fun .def_237 () Bool (and .def_235 .def_236))
(define-fun .def_658 () Bool (or .def_237 .def_657))
(define-fun .def_211 () Bool (and .def_143 .def_210))
(define-fun .def_212 () Bool (and .def_72 .def_211))
(define-fun .def_213 () Bool (and .def_74 .def_212))
(define-fun .def_214 () Bool (and .loc.11 .def_213))
(define-fun .def_215 () Bool (and .loc.12 .def_214))
(define-fun .def_216 () Bool (and .def_79 .def_215))
(define-fun .def_217 () Bool (and .def_81 .def_216))
(define-fun .def_218 () Bool (and .def_83 .def_217))
(define-fun .def_219 () Bool (and .def_85 .def_218))
(define-fun .def_220 () Bool (and .def_87 .def_219))
(define-fun .def_659 () Bool (or .def_220 .def_658))
(define-fun .def_186 () Bool (and .def_143 .def_185))
(define-fun .def_187 () Bool (and .def_72 .def_186))
(define-fun .def_188 () Bool (and .def_74 .def_187))
(define-fun .def_189 () Bool (and .loc.11 .def_188))
(define-fun .def_190 () Bool (and .loc.12 .def_189))
(define-fun .def_191 () Bool (and .def_79 .def_190))
(define-fun .def_192 () Bool (and .def_81 .def_191))
(define-fun .def_193 () Bool (and .def_83 .def_192))
(define-fun .def_194 () Bool (and .def_85 .def_193))
(define-fun .def_195 () Bool (and .def_87 .def_194))
(define-fun .def_197 () Bool (and .def_195 .def_196))
(define-fun .def_660 () Bool (or .def_197 .def_659))
(define-fun .def_159 () (Array Int Int) (store .def_158 .def_157 42))
(define-fun .def_160 () (Array Int (Array Int Int)) (store .def_14 .def_34 .def_159))
(define-fun .def_161 () Bool (= .x.692 .def_160))
(define-fun .def_170 () Bool (and .def_161 .def_169))
(define-fun .def_171 () Bool (or .def_50 .def_170))
(define-fun .def_144 () Bool (and .def_142 .def_143))
(define-fun .def_145 () Bool (and .def_72 .def_144))
(define-fun .def_146 () Bool (and .def_74 .def_145))
(define-fun .def_147 () Bool (and .loc.12 .def_146))
(define-fun .def_148 () Bool (and .def_77 .def_147))
(define-fun .def_149 () Bool (and .def_79 .def_148))
(define-fun .def_150 () Bool (and .def_81 .def_149))
(define-fun .def_151 () Bool (and .def_83 .def_150))
(define-fun .def_152 () Bool (and .def_85 .def_151))
(define-fun .def_153 () Bool (and .def_87 .def_152))
(define-fun .def_172 () Bool (and .def_153 .def_171))
(define-fun .def_661 () Bool (or .def_172 .def_660))
(define-fun .def_124 () Bool (= .def_26 .x.698))
(define-fun .def_122 () Bool (= .def_18 .x.694))
(define-fun .def_121 () Bool (= .def_22 .x.696))
(define-fun .def_123 () Bool (and .def_121 .def_122))
(define-fun .def_125 () Bool (and .def_123 .def_124))
(define-fun .def_662 () Bool (and .def_125 .def_661))
(define-fun .def_116 () Bool (= .x.698 0))
(define-fun .def_115 () Bool (= .x.694 0))
(define-fun .def_117 () Bool (and .def_115 .def_116))
(define-fun .def_113 () (Array Int Int) (store .def_10 0 0))
(define-fun .def_114 () Bool (= .def_90 .def_113))
(define-fun .def_118 () Bool (and .def_114 .def_117))
(define-fun .def_119 () Bool (or .def_50 .def_118))
(define-fun .def_102 () Bool (<= .x.689 .x.702))
(define-fun .def_103 () Bool (not .def_102))
(define-fun .def_105 () Bool (and .def_103 .def_104))
(define-fun .def_100 () Bool (= .x.702 0))
(define-fun .def_101 () Bool (not .def_100))
(define-fun .def_106 () Bool (and .def_101 .def_105))
(define-fun .def_99 () Bool (= .x.701 0))
(define-fun .def_107 () Bool (and .def_99 .def_106))
(define-fun .def_97 () Int (select .def_90 .x.702))
(define-fun .def_98 () Bool (= .def_97 0))
(define-fun .def_108 () Bool (and .def_98 .def_107))
(define-fun .def_94 () (Array Int Int) (store .def_22 .x.702 400000))
(define-fun .def_95 () Bool (= .x.696 .def_94))
(define-fun .def_109 () Bool (and .def_95 .def_108))
(define-fun .def_91 () (Array Int Int) (store .def_90 .x.702 1))
(define-fun .def_92 () Bool (= .x.690 .def_91))
(define-fun .def_110 () Bool (and .def_92 .def_109))
(define-fun .def_111 () Bool (or V_32 .def_110))
(define-fun .def_64 () Bool (and .def_62 .def_63))
(define-fun .def_66 () Bool (and .def_64 .def_65))
(define-fun .def_68 () Bool (and .def_66 .def_67))
(define-fun .def_69 () Bool (and .def_52 .def_68))
(define-fun .def_71 () Bool (and .def_69 .def_70))
(define-fun .def_73 () Bool (and .def_71 .def_72))
(define-fun .def_75 () Bool (and .def_73 .def_74))
(define-fun .def_76 () Bool (and .loc.12 .def_75))
(define-fun .def_78 () Bool (and .def_76 .def_77))
(define-fun .def_80 () Bool (and .def_78 .def_79))
(define-fun .def_82 () Bool (and .def_80 .def_81))
(define-fun .def_84 () Bool (and .def_82 .def_83))
(define-fun .def_86 () Bool (and .def_84 .def_85))
(define-fun .def_88 () Bool (and .def_86 .def_87))
(define-fun .def_112 () Bool (and .def_88 .def_111))
(define-fun .def_120 () Bool (and .def_112 .def_119))
(define-fun .def_663 () Bool (or .def_120 .def_662))
(define-fun .def_675 () Bool (! (and .def_663 .def_674) :trans true))
(define-fun .def_692 () Bool (and .def_54 .def_143))
(define-fun .def_693 () Bool (and .def_72 .def_692))
(define-fun .def_694 () Bool (and .def_74 .def_693))
(define-fun .def_695 () Bool (and .def_60 .def_694))
(define-fun .def_696 () Bool (and .def_50 .def_695))
(define-fun .def_697 () Bool (! (not .def_696) :invar-property 0))
(assert true)
